c instance by G2
c solution = 111100111000110
c Known solution cost is 828 
p cnf 15 30
w 19 78 42 48 28 90 95 71 28 52 68 76 80 1 52
13 5 -3 0
15 -13 -11 0
10 6 4 0
-3 -9 1 0
-3 -9 -12 0
15 12 3 0
9 5 -1 0
-9 -14 -6 0
10 13 15 0
8 1 7 0
14 -12 4 0
-12 -14 -15 0
4 -7 10 0
8 -11 -4 0
3 -2 -10 0
-5 -2 -7 0
14 -2 8 0
-4 -2 1 0
15 -11 -7 0
11 14 10 0
-14 -15 -1 0
6 12 -10 0
10 12 13 0
-10 5 -12 0
12 10 2 0
3 11 -13 0
13 1 8 0
-9 8 5 0
10 7 11 0
-4 -3 -12 0
